NAME: ftv33
TYPE: ATSP
COMMENT: Asymmetric TSP (Fischetti)
DIMENSION: 5
EDGE_WEIGHT_TYPE: EXPLICIT
EDGE_WEIGHT_FORMAT: FULL_MATRIX 
EDGE_WEIGHT_SECTION
   100000000	12	3	45	6	78	100000000	90	21	3	5	56	100000000	23	98	12	6	8	100000000	34	3	98	3	2	100000000
EOF
